
%FILE DATA:	Soccer Computational Problem for MiniZinc Models	%
%AUTHOR:	Jack Wall	%
%CONTACT:  	116397063@umail.ucc.ie			%
%LAST UPDATE:	03/19/2020, 20:58:59						%
%DESCRIPTION: 	288 games played with 18 games left				%


n=18; %number of teams

%Games to play
games=[|11,18|17,12|17,8|14,18|17,7|11,16|16,2|6,15|14,12|8,6|18,15|18,12|11,6|4,6|3,14|14,17|12,15|12,16|];

%Initial points
iPoints=[42,43,39,49,49,32,43,49,59,51,40,36,42,41,48,31,26,52];

%POSITION CONSTRAINTS
% [|teamID, operator, position|...]
% operators index:
%  1 for =  operator
%  2 for >  operator
%  3 for >= operator
%  4 for <  operator
%  5 for <= operator
positionConstraints=[|9,4,2|18,1,2|15,1,3|8,5,4|];